p cnf 53 196
-16 -17 0
-16 -18 0
-17 -18 0
16 17 18 0
1 -16 0
2 -17 0
3 -18 0
4 -16 0
5 -17 0
6 -18 0
7 -16 0
10 -16 0
11 -17 0
12 -18 0
14 -17 0
15 -18 0
-19 -20 0
-19 -21 0
-19 -22 0
-19 -23 0
-19 -24 0
-19 -25 0
-20 -21 0
-20 -22 0
-20 -23 0
-20 -24 0
-20 -25 0
-21 -22 0
-21 -23 0
-21 -24 0
-21 -25 0
-22 -23 0
-22 -24 0
-22 -25 0
-23 -24 0
-23 -25 0
-24 -25 0
19 20 21 22 23 24 25 0
-26 -27 0
-26 -28 0
-26 -29 0
-26 -30 0
-26 -31 0
-26 -32 0
-27 -28 0
-27 -29 0
-27 -30 0
-27 -31 0
-27 -32 0
-28 -29 0
-28 -30 0
-28 -31 0
-28 -32 0
-29 -30 0
-29 -31 0
-29 -32 0
-30 -31 0
-30 -32 0
-31 -32 0
26 27 28 29 30 31 32 0
-33 -34 0
-33 -35 0
-33 -36 0
-33 -37 0
-33 -38 0
-33 -39 0
-34 -35 0
-34 -36 0
-34 -37 0
-34 -38 0
-34 -39 0
-35 -36 0
-35 -37 0
-35 -38 0
-35 -39 0
-36 -37 0
-36 -38 0
-36 -39 0
-37 -38 0
-37 -39 0
-38 -39 0
33 34 35 36 37 38 39 0
-40 -41 0
-40 -42 0
-40 -43 0
-40 -44 0
-40 -45 0
-40 -46 0
-41 -42 0
-41 -43 0
-41 -44 0
-41 -45 0
-41 -46 0
-42 -43 0
-42 -44 0
-42 -45 0
-42 -46 0
-43 -44 0
-43 -45 0
-43 -46 0
-44 -45 0
-44 -46 0
-45 -46 0
40 41 42 43 44 45 46 0
-47 -48 0
-47 -49 0
-47 -50 0
-47 -51 0
-47 -52 0
-47 -53 0
-48 -49 0
-48 -50 0
-48 -51 0
-48 -52 0
-48 -53 0
-49 -50 0
-49 -51 0
-49 -52 0
-49 -53 0
-50 -51 0
-50 -52 0
-50 -53 0
-51 -52 0
-51 -53 0
-52 -53 0
47 48 49 50 51 52 53 0
-19 -26 0
-20 -27 0
-21 -28 0
-22 -29 0
-23 -30 0
-24 -31 0
-25 -32 0
-1 -19 -33 0
-1 -20 -34 0
-1 -21 -35 0
-1 -23 -36 0
-1 -24 -37 0
-1 -25 -38 0
-19 -40 0
-20 -41 0
-21 -42 0
-22 -43 0
-23 -44 0
-24 -45 0
-25 -46 0
-2 -20 0
-3 -20 -47 0
-3 -21 -48 0
-3 -22 -49 0
-3 -23 -50 0
-3 -24 -51 0
-3 -25 -52 0
-4 -26 -33 0
-4 -27 -34 0
-4 -28 -35 0
-4 -30 -36 0
-4 -31 -37 0
-4 -32 -38 0
-26 -40 0
-27 -41 0
-28 -42 0
-29 -43 0
-30 -44 0
-31 -45 0
-32 -46 0
-5 -27 0
-6 -27 -47 0
-6 -28 -48 0
-6 -29 -49 0
-6 -30 -50 0
-6 -31 -51 0
-6 -32 -52 0
-7 -33 -40 0
-7 -34 -41 0
-7 -35 -42 0
-7 -36 -44 0
-7 -37 -45 0
-7 -38 -46 0
-8 -34 0
-9 -34 -47 0
-9 -35 -48 0
-9 -36 -50 0
-9 -37 -51 0
-9 -38 -52 0
-9 -39 -53 0
-10 -39 0
-11 -41 0
-12 -41 -47 0
-12 -42 -48 0
-12 -43 -49 0
-12 -44 -50 0
-12 -45 -51 0
-12 -46 -52 0
-13 -47 0
-15 -53 0
